
Gurobi 6.5.2 (linux64) logging started Tue Sep 20 21:16:19 2016


Gurobi 6.5.2 (linux64) logging started Tue Sep 20 21:16:19 2016

Optimize a model with 41 rows, 115 columns and 231 nonzeros
Coefficient statistics:
  Matrix range    [1e+00, 2e+00]
  Objective range [1e+00, 1e+02]
  Bounds range    [1e+00, 1e+00]
  RHS range       [1e+00, 1e+00]
Presolve removed 21 rows and 20 columns
Presolve time: 0.00s
Presolved: 20 rows, 95 columns, 190 nonzeros
Variable types: 0 continuous, 95 integer (95 binary)

Root relaxation: objective 6.490000e+02, 24 iterations, 0.00 seconds

    Nodes    |    Current Node    |     Objective Bounds      |     Work
 Expl Unexpl |  Obj  Depth IntInf | Incumbent    BestBd   Gap | It/Node Time

     0     0  649.00000    0    6          -  649.00000      -     -    0s
H    0     0                     809.0000000  649.00000  19.8%     -    0s
H    0     0                     760.0000000  649.00000  14.6%     -    0s
*    0     0               0     660.0000000  660.00000  0.00%     -    0s

Cutting planes:
  Gomory: 1
  Zero half: 2
  Lazy constraints: 2

Explored 0 nodes (29 simplex iterations) in 0.00 seconds
Thread count was 8 (of 8 available processors)

Optimal solution found (tolerance 1.00e-04)
Best objective 6.600000000000e+02, best bound 6.600000000000e+02, gap 0.0%
